c Generated map
c Size: 12 * 12, weights in range: 1 to 10, walls: False, with ratio 0.0
c dim 1 of 5
c
p sp 144 264
c graph contains 144 nodes and 264 arcs
c
a 1 13 8
a 13 1 8
a 1 2 8
a 2 1 8
a 2 14 6
a 14 2 6
a 2 3 3
a 3 2 3
a 3 15 10
a 15 3 10
a 3 4 4
a 4 3 4
a 4 16 10
a 16 4 10
a 4 5 10
a 5 4 10
a 5 17 6
a 17 5 6
a 5 6 3
a 6 5 3
a 6 18 1
a 18 6 1
a 6 7 5
a 7 6 5
a 7 19 5
a 19 7 5
a 7 8 5
a 8 7 5
a 8 20 5
a 20 8 5
a 8 9 7
a 9 8 7
a 9 21 4
a 21 9 4
a 9 10 7
a 10 9 7
a 10 22 5
a 22 10 5
a 10 11 1
a 11 10 1
a 11 23 5
a 23 11 5
a 11 12 8
a 12 11 8
a 12 24 1
a 24 12 1
a 13 25 2
a 25 13 2
a 13 14 3
a 14 13 3
a 14 26 8
a 26 14 8
a 14 15 7
a 15 14 7
a 15 27 7
a 27 15 7
a 15 16 6
a 16 15 6
a 16 28 4
a 28 16 4
a 16 17 5
a 17 16 5
a 17 29 10
a 29 17 10
a 17 18 10
a 18 17 10
a 18 30 2
a 30 18 2
a 18 19 2
a 19 18 2
a 19 31 8
a 31 19 8
a 19 20 10
a 20 19 10
a 20 32 7
a 32 20 7
a 20 21 10
a 21 20 10
a 21 33 7
a 33 21 7
a 21 22 10
a 22 21 10
a 22 34 8
a 34 22 8
a 22 23 10
a 23 22 10
a 23 35 7
a 35 23 7
a 23 24 8
a 24 23 8
a 24 36 7
a 36 24 7
a 25 37 7
a 37 25 7
a 25 26 10
a 26 25 10
a 26 38 6
a 38 26 6
a 26 27 7
a 27 26 7
a 27 39 6
a 39 27 6
a 27 28 5
a 28 27 5
a 28 40 6
a 40 28 6
a 28 29 4
a 29 28 4
a 29 41 1
a 41 29 1
a 29 30 3
a 30 29 3
a 30 42 9
a 42 30 9
a 30 31 6
a 31 30 6
a 31 43 3
a 43 31 3
a 31 32 6
a 32 31 6
a 32 44 7
a 44 32 7
a 32 33 3
a 33 32 3
a 33 45 2
a 45 33 2
a 33 34 10
a 34 33 10
a 34 46 5
a 46 34 5
a 34 35 9
a 35 34 9
a 35 47 10
a 47 35 10
a 35 36 7
a 36 35 7
a 36 48 8
a 48 36 8
a 37 49 5
a 49 37 5
a 37 38 8
a 38 37 8
a 38 50 10
a 50 38 10
a 38 39 9
a 39 38 9
a 39 51 5
a 51 39 5
a 39 40 9
a 40 39 9
a 40 52 9
a 52 40 9
a 40 41 7
a 41 40 7
a 41 53 10
a 53 41 10
a 41 42 8
a 42 41 8
a 42 54 8
a 54 42 8
a 42 43 5
a 43 42 5
a 43 55 6
a 55 43 6
a 43 44 5
a 44 43 5
a 44 56 9
a 56 44 9
a 44 45 8
a 45 44 8
a 45 57 4
a 57 45 4
a 45 46 9
a 46 45 9
a 46 58 2
a 58 46 2
a 46 47 3
a 47 46 3
a 47 59 7
a 59 47 7
a 47 48 2
a 48 47 2
a 48 60 5
a 60 48 5
a 49 61 4
a 61 49 4
a 49 50 4
a 50 49 4
a 50 62 2
a 62 50 2
a 50 51 1
a 51 50 1
a 51 63 9
a 63 51 9
a 51 52 4
a 52 51 4
a 52 64 1
a 64 52 1
a 52 53 1
a 53 52 1
a 53 65 1
a 65 53 1
a 53 54 8
a 54 53 8
a 54 66 6
a 66 54 6
a 54 55 6
a 55 54 6
a 55 67 3
a 67 55 3
a 55 56 8
a 56 55 8
a 56 68 5
a 68 56 5
a 56 57 10
a 57 56 10
a 57 69 3
a 69 57 3
a 57 58 9
a 58 57 9
a 58 70 9
a 70 58 9
a 58 59 10
a 59 58 10
a 59 71 2
a 71 59 2
a 59 60 9
a 60 59 9
a 60 72 3
a 72 60 3
a 61 73 9
a 73 61 9
a 61 62 3
a 62 61 3
a 62 74 10
a 74 62 10
a 62 63 4
a 63 62 4
a 63 75 9
a 75 63 9
a 63 64 8
a 64 63 8
a 64 76 5
a 76 64 5
a 64 65 7
a 65 64 7
a 65 77 4
a 77 65 4
a 65 66 1
a 66 65 1
a 66 78 4
a 78 66 4
a 66 67 6
a 67 66 6
a 67 79 5
a 79 67 5
a 67 68 7
a 68 67 7
a 68 80 6
a 80 68 6
a 68 69 3
a 69 68 3
a 69 81 5
a 81 69 5
a 69 70 7
a 70 69 7
a 70 82 9
a 82 70 9
a 70 71 10
a 71 70 10
a 71 83 10
a 83 71 10
a 71 72 2
a 72 71 2
a 72 84 10
a 84 72 10
a 73 85 1
a 85 73 1
a 73 74 1
a 74 73 1
a 74 86 9
a 86 74 9
a 74 75 9
a 75 74 9
a 75 87 7
a 87 75 7
a 75 76 3
a 76 75 3
a 76 88 5
a 88 76 5
a 76 77 8
a 77 76 8
a 77 89 1
a 89 77 1
a 77 78 8
a 78 77 8
a 78 90 7
a 90 78 7
a 78 79 8
a 79 78 8
a 79 91 9
a 91 79 9
a 79 80 7
a 80 79 7
a 80 92 10
a 92 80 10
a 80 81 7
a 81 80 7
a 81 93 8
a 93 81 8
a 81 82 2
a 82 81 2
a 82 94 8
a 94 82 8
a 82 83 9
a 83 82 9
a 83 95 6
a 95 83 6
a 83 84 5
a 84 83 5
a 84 96 9
a 96 84 9
a 85 97 10
a 97 85 10
a 85 86 9
a 86 85 9
a 86 98 1
a 98 86 1
a 86 87 1
a 87 86 1
a 87 99 8
a 99 87 8
a 87 88 3
a 88 87 3
a 88 100 2
a 100 88 2
a 88 89 1
a 89 88 1
a 89 101 7
a 101 89 7
a 89 90 1
a 90 89 1
a 90 102 4
a 102 90 4
a 90 91 1
a 91 90 1
a 91 103 1
a 103 91 1
a 91 92 4
a 92 91 4
a 92 104 5
a 104 92 5
a 92 93 6
a 93 92 6
a 93 105 9
a 105 93 9
a 93 94 5
a 94 93 5
a 94 106 1
a 106 94 1
a 94 95 5
a 95 94 5
a 95 107 2
a 107 95 2
a 95 96 8
a 96 95 8
a 96 108 1
a 108 96 1
a 97 109 7
a 109 97 7
a 97 98 5
a 98 97 5
a 98 110 10
a 110 98 10
a 98 99 10
a 99 98 10
a 99 111 6
a 111 99 6
a 99 100 8
a 100 99 8
a 100 112 5
a 112 100 5
a 100 101 9
a 101 100 9
a 101 113 9
a 113 101 9
a 101 102 2
a 102 101 2
a 102 114 2
a 114 102 2
a 102 103 8
a 103 102 8
a 103 115 9
a 115 103 9
a 103 104 6
a 104 103 6
a 104 116 6
a 116 104 6
a 104 105 2
a 105 104 2
a 105 117 7
a 117 105 7
a 105 106 9
a 106 105 9
a 106 118 9
a 118 106 9
a 106 107 7
a 107 106 7
a 107 119 2
a 119 107 2
a 107 108 9
a 108 107 9
a 108 120 10
a 120 108 10
a 109 121 2
a 121 109 2
a 109 110 3
a 110 109 3
a 110 122 3
a 122 110 3
a 110 111 6
a 111 110 6
a 111 123 3
a 123 111 3
a 111 112 5
a 112 111 5
a 112 124 9
a 124 112 9
a 112 113 5
a 113 112 5
a 113 125 6
a 125 113 6
a 113 114 4
a 114 113 4
a 114 126 9
a 126 114 9
a 114 115 2
a 115 114 2
a 115 127 5
a 127 115 5
a 115 116 10
a 116 115 10
a 116 128 7
a 128 116 7
a 116 117 6
a 117 116 6
a 117 129 7
a 129 117 7
a 117 118 6
a 118 117 6
a 118 130 2
a 130 118 2
a 118 119 6
a 119 118 6
a 119 131 10
a 131 119 10
a 119 120 2
a 120 119 2
a 120 132 2
a 132 120 2
a 121 133 8
a 133 121 8
a 121 122 5
a 122 121 5
a 122 134 8
a 134 122 8
a 122 123 9
a 123 122 9
a 123 135 4
a 135 123 4
a 123 124 7
a 124 123 7
a 124 136 10
a 136 124 10
a 124 125 8
a 125 124 8
a 125 137 10
a 137 125 10
a 125 126 8
a 126 125 8
a 126 138 6
a 138 126 6
a 126 127 9
a 127 126 9
a 127 139 9
a 139 127 9
a 127 128 10
a 128 127 10
a 128 140 10
a 140 128 10
a 128 129 4
a 129 128 4
a 129 141 10
a 141 129 10
a 129 130 2
a 130 129 2
a 130 142 8
a 142 130 8
a 130 131 7
a 131 130 7
a 131 143 4
a 143 131 4
a 131 132 9
a 132 131 9
a 132 144 8
a 144 132 8
a 133 134 8
a 134 133 8
a 134 135 3
a 135 134 3
a 135 136 10
a 136 135 10
a 136 137 6
a 137 136 6
a 137 138 8
a 138 137 8
a 138 139 1
a 139 138 1
a 139 140 3
a 140 139 3
a 140 141 7
a 141 140 7
a 141 142 5
a 142 141 5
a 142 143 9
a 143 142 9
a 143 144 3
a 144 143 3
